! Solving for graph /home/truongxuanhieu/CPLEX-CP-for-MinSpanLabeling/benchmarks/abp/U-662_bus.mtx.rnd
! Target value is set to 220
! Lower bound is set to 221
! Upper bound is set to 662
! Time limit is set to 1800
! Vertices mode is set to Has hole
 ! --------------------------------------------------- CP Optimizer 22.2.0.0 --
 ! Minimization problem - 663 variables, 1569 constraints, 1 phase
 ! TimeLimit            = 1800
 ! LogVerbosity         = Terse
 ! Initial process time : 0.02s (0.02s extraction + 0.00s propagation)
 !  . Log search space  : 6211.2 (before), 6211.2 (after)
 !  . Memory usage      : 886.5 kB (before), 886.5 kB (after)
 ! Using parallel search with 8 workers.
 ! ----------------------------------------------------------------------------
 !          Best Branches  Non-fixed    W       Branch decision
                        0        663                 -
 + New bound is 221
                        2        662    1   F     1 != _int191
 + New bound is 222
 *           661      663  0.13s        1      (gap is 66.41%)
             661     121k        640    1            -
 + New bound is 661 (gap is 0.00%)
 ! ----------------------------------------------------------------------------
 ! Search completed, 1 solution found.
 ! Best objective         : 661 (optimal - effective tol. is 0)
 ! Best bound             : 661
 ! ----------------------------------------------------------------------------
 ! Number of branches     : 1089692
 ! Number of fails        : 420720
 ! Total memory usage     : 68.3 MB (67.7 MB CP Optimizer + 0.6 MB Concert)
 ! Time spent in solve    : 7.42s (7.40s engine + 0.02s extraction)
 ! Search speed (br. / s) : 147255.7
 ! ----------------------------------------------------------------------------
! --------------------------------------------------------
! Best span = 661
! Labeling: 1 221 221 1 1 221 1 1 221 1 1 1 221 1 1 1 1 1 1 1 441 1 1 441 441 221 221 221 1 221 441 441 1 221 1 1 1 221 221 1 221 221 221 221 1 1 1 221 1 221 221 1 1 1 1 1 1 441 221 1 441 441 1 441 1 661 1 221 221 1 1 221 221 1 1 1 1 1 1 1 1 1 1 1 1 1 221 221 1 221 221 1 1 441 1 1 221 1 221 221 441 221 221 221 1 1 441 221 221 1 441 1 1 221 221 221 441 221 1 1 1 221 221 221 221 441 221 221 221 441 221 441 441 1 441 221 441 221 1 221 221 441 221 1 441 221 221 1 441 221 221 1 441 1 1 441 1 221 221 221 221 1 221 1 1 221 221 1 441 441 221 1 1 441 441 1 1 441 221 221 441 1 1 1 1 1 221 1 221 221 221 221 1 1 1 441 221 221 441 221 221 221 221 1 221 221 1 221 221 441 1 1 221 1 1 221 1 1 221 441 1 1 221 1 221 441 221 221 221 221 441 1 1 1 221 1 221 1 221 1 221 1 1 1 441 221 221 221 1 221 221 1 1 441 221 1 441 441 1 221 1 221 1 221 1 1 1 1 1 441 441 1 221 441 221 221 1 1 221 221 221 221 1 1 441 441 221 1 1 441 221 221 1 1 221 221 221 1 1 1 1 1 221 1 441 1 1 221 221 1 441 1 221 441 221 221 221 221 1 221 221 221 1 1 221 221 221 1 1 441 441 221 441 221 1 441 1 221 1 441 221 221 1 1 1 1 1 1 221 1 441 441 1 1 221 221 221 221 221 1 1 221 1 1 221 221 1 1 221 1 1 221 221 1 1 221 221 1 221 221 221 221 221 221 221 221 221 441 1 1 441 1 1 1 221 1 1 1 1 441 221 1 1 221 1 221 221 221 221 1 441 221 221 1 221 1 221 221 1 441 221 221 221 221 441 221 221 221 1 221 221 1 1 221 441 1 221 1 221 1 221 1 441 221 441 1 441 1 1 221 221 1 221 441 441 221 221 221 221 221 1 221 441 1 1 1 1 1 221 1 1 221 1 221 441 661 1 1 441 221 441 221 1 441 1 221 1 1 1 221 1 1 221 221 1 1 1 441 441 221 1 1 1 1 221 1 221 1 221 1 1 441 1 1 1 221 1 441 221 441 221 1 441 221 1 221 221 1 1 221 441 441 1 1 1 441 1 221 1 1 1 221 221 441 441 221 441 1 221 1 1 1 441 221 221 441 1 1 221 1 221 221 1 221 1 221 221 221 221 1 441 1 221 1 441 1 221 1 1 221 1 1 441 1 1 441 221 1 221 1 1 1 441 441 1 1 221 221 221 221 1 221 1 1 1 221 1 1 221 1 1 1 441 221 221 221 221 441 1 221 221 441 221 1 1 221 1 221 221 221 221 441 221 1 1 1 1 441 221 1 221 221 1 221 221 1 441 441 1 221 441 441 1 1 221 221 221 1 1 1 221 441 
! -------------------------------------------------------- 
